k = 60;
b = 30;
AtomicConstraints =  [|
1, 5|
	1, 6|
	1, 7|
	1, 8|
	1, 9|
	1, 10|
	1, 11|
	1, 12|
	1, 17|
	1, 18|
	1, 19|
	1, 20|
	1, 49|
	1, 38|
	1, 39|
	1, 48|
	1, 45|
	1, 54|
	1, 53|
	1, 32|
	1, 46|
	1, 55|
	1, 52|
	1, 34|
	1, 56|
	1, 51|
	1, 33|
	1, 37|
	1, 44|
	1, 31|
	1, 36|
	1, 27|
	1, 28|
	1, 35|
	1, 29|
	1, 43|
	1, 41|
	1, 30|
	1, 42|
	1, 40|
	1, 47|
	1, 50|
	2, 5|
	2, 6|
	2, 7|
	2, 8|
	2, 9|
	2, 10|
	2, 11|
	2, 12|
	2, 17|
	2, 18|
	2, 19|
	2, 20|
	2, 49|
	2, 38|
	2, 39|
	2, 48|
	2, 45|
	2, 54|
	2, 53|
	2, 32|
	2, 46|
	2, 55|
	2, 52|
	2, 34|
	2, 56|
	2, 51|
	2, 33|
	2, 37|
	2, 44|
	2, 31|
	2, 36|
	2, 27|
	2, 28|
	2, 35|
	2, 29|
	2, 43|
	2, 41|
	2, 30|
	2, 42|
	2, 40|
	2, 47|
	2, 50|
	3, 5|
	3, 6|
	3, 7|
	3, 8|
	3, 9|
	3, 10|
	3, 11|
	3, 12|
	3, 17|
	3, 18|
	3, 19|
	3, 20|
	3, 49|
	3, 38|
	3, 39|
	3, 48|
	3, 45|
	3, 54|
	3, 53|
	3, 32|
	3, 46|
	3, 55|
	3, 52|
	3, 34|
	3, 56|
	3, 51|
	3, 33|
	3, 37|
	3, 44|
	3, 31|
	3, 36|
	3, 27|
	3, 28|
	3, 35|
	3, 29|
	3, 43|
	3, 41|
	3, 30|
	3, 42|
	3, 40|
	3, 47|
	3, 50|
	4, 5|
	4, 6|
	4, 7|
	4, 8|
	4, 9|
	4, 10|
	4, 11|
	4, 12|
	4, 17|
	4, 18|
	4, 19|
	4, 20|
	4, 49|
	4, 38|
	4, 39|
	4, 48|
	4, 45|
	4, 54|
	4, 53|
	4, 32|
	4, 46|
	4, 55|
	4, 52|
	4, 34|
	4, 56|
	4, 51|
	4, 33|
	4, 37|
	4, 44|
	4, 31|
	4, 36|
	4, 27|
	4, 28|
	4, 35|
	4, 29|
	4, 43|
	4, 41|
	4, 30|
	4, 42|
	4, 40|
	4, 47|
	4, 50|
	5, 17|
	5, 18|
	5, 19|
	5, 20|
	6, 17|
	6, 18|
	6, 19|
	6, 20|
	7, 17|
	7, 18|
	7, 19|
	7, 20|
	8, 17|
	8, 18|
	8, 19|
	8, 20|
	9, 17|
	9, 18|
	9, 19|
	9, 20|
	10, 11|
	10, 12|
	10, 19|
	10, 20|
	11, 12|
	11, 19|
	11, 20|
	12, 19|
	12, 20|
	13, 10|
	13, 11|
	13, 12|
	13, 19|
	13, 20|
	13, 24|
	13, 25|
	13, 26|
	13, 40|
	13, 47|
	13, 50|
	13, 60|
	14, 10|
	14, 11|
	14, 12|
	14, 19|
	14, 20|
	14, 24|
	14, 25|
	14, 26|
	14, 40|
	14, 47|
	14, 50|
	14, 60|
	15, 10|
	15, 11|
	15, 12|
	15, 17|
	15, 19|
	15, 20|
	15, 40|
	15, 47|
	15, 50|
	16, 10|
	16, 11|
	16, 12|
	16, 17|
	16, 19|
	16, 20|
	16, 40|
	16, 47|
	16, 50|
	21, 40|
	21, 47|
	21, 50|
	21, 60|
	22, 20|
	22, 40|
	22, 47|
	22, 50|
	22, 60|
	23, 20|
	23, 40|
	23, 47|
	23, 50|
	23, 60|
	24, 19|
	24, 20|
	24, 40|
	24, 47|
	24, 50|
	25, 19|
	25, 20|
	25, 40|
	25, 47|
	25, 50|
	26, 19|
	26, 20|
	26, 40|
	26, 47|
	26, 50|
	49, 38|
	39, 38|
	48, 38|
	48, 39|
	45, 49|
	45, 38|
	54, 49|
	54, 38|
	54, 39|
	54, 45|
	54, 46|
	53, 49|
	53, 38|
	53, 39|
	53, 48|
	53, 45|
	53, 54|
	53, 46|
	53, 55|
	32, 49|
	32, 38|
	32, 39|
	32, 48|
	32, 45|
	32, 54|
	32, 53|
	32, 46|
	32, 55|
	32, 52|
	32, 56|
	46, 49|
	46, 38|
	46, 39|
	55, 49|
	55, 38|
	55, 39|
	55, 45|
	55, 46|
	52, 49|
	52, 38|
	52, 39|
	52, 48|
	52, 45|
	52, 54|
	52, 46|
	52, 55|
	52, 56|
	34, 49|
	34, 38|
	34, 39|
	34, 48|
	34, 45|
	34, 54|
	34, 53|
	34, 46|
	34, 55|
	34, 52|
	34, 56|
	34, 51|
	56, 49|
	56, 38|
	56, 39|
	56, 48|
	56, 46|
	51, 49|
	51, 38|
	51, 39|
	51, 48|
	51, 46|
	51, 55|
	51, 56|
	33, 49|
	33, 38|
	33, 39|
	33, 48|
	33, 46|
	33, 55|
	33, 52|
	33, 56|
	33, 51|
	33, 37|
	37, 49|
	37, 38|
	37, 39|
	37, 48|
	37, 56|
	44, 49|
	44, 38|
	44, 39|
	44, 48|
	44, 56|
	44, 51|
	44, 37|
	31, 49|
	31, 38|
	31, 39|
	31, 48|
	31, 56|
	31, 51|
	31, 33|
	31, 37|
	31, 44|
	31, 36|
	31, 35|
	31, 41|
	31, 30|
	36, 49|
	36, 38|
	36, 39|
	36, 48|
	27, 49|
	27, 38|
	27, 39|
	27, 48|
	27, 36|
	27, 35|
	27, 41|
	27, 30|
	28, 49|
	28, 38|
	28, 39|
	28, 48|
	28, 36|
	28, 27|
	28, 35|
	28, 29|
	28, 41|
	28, 30|
	28, 42|
	35, 49|
	35, 38|
	35, 39|
	35, 48|
	35, 41|
	35, 30|
	29, 49|
	29, 38|
	29, 39|
	29, 48|
	29, 36|
	29, 35|
	29, 41|
	29, 30|
	29, 42|
	43, 49|
	43, 38|
	43, 39|
	43, 48|
	43, 36|
	43, 27|
	43, 35|
	43, 29|
	43, 41|
	43, 30|
	43, 42|
	41, 38|
	41, 39|
	41, 48|
	41, 30|
	30, 38|
	30, 39|
	30, 48|
	42, 38|
	42, 39|
	42, 48|
	42, 30|
	50, 19|
	59, 5|
	59, 6|
	59, 7|
	59, 8|
	59, 9|
	59, 10|
	59, 11|
	59, 12|
	59, 15|
	59, 16|
	59, 17|
	59, 18|
	59, 19|
	59, 20|
	59, 40|
	59, 47|
	59, 50|
	57, 5|
	57, 6|
	57, 7|
	57, 8|
	57, 9|
	57, 10|
	57, 11|
	57, 12|
	57, 15|
	57, 16|
	57, 17|
	57, 18|
	57, 19|
	57, 20|
	57, 40|
	57, 47|
	57, 50|
	58, 5|
	58, 6|
	58, 7|
	58, 8|
	58, 9|
	58, 10|
	58, 11|
	58, 12|
	58, 15|
	58, 16|
	58, 17|
	58, 18|
	58, 19|
	58, 20|
	58, 40|
	58, 47|
	58, 50|];
DisjunctiveConstraints =  [|1, 32, 1, 2|
	2, 3, 2, 1|
	3, 4, 3, 2|
	6, 5, 6, 7|
	7, 6, 7, 8|
	8, 7, 8, 9|
	15, 9, 39, 15|
	15, 17, 15, 47|
	22, 20, 22, 50|
	22, 23, 22, 21|
	23, 20, 23, 50|
	25, 24, 25, 26|
	55, 54, 55, 56|
	52, 53, 52, 51|
	34, 32, 34, 33|
	51, 52, 51, 37|
	33, 34, 33, 44|
	37, 51, 37, 36|
	44, 33, 44, 27|
	36, 19, 36, 49|
	36, 37, 36, 35|
	27, 19, 27, 49|
	27, 44, 27, 29|
	28, 19, 28, 49|
	28, 31, 28, 43|
	35, 49, 19, 35|
	29, 49, 19, 29|
	40, 19, 49, 40|
	47, 50, 47, 40|
	60, 19, 49, 60|
	59, 35, 59, 5|
	57, 58, 57, 59|
	58, 49, 19, 58|
	58, 48, 18, 58|];
SoftAtomicConstraints =  [|
2, 1|
3, 2|
4, 3|
5, 6|
6, 7|
7, 8|
8, 9|
14, 13|
15, 16|
18, 17|
20, 19|
22, 21|
23, 22|
59, 23|
24, 25|
25, 26|
44, 27|
31, 28|
27, 29|
46, 30|
34, 33|
32, 34|
36, 35|
37, 36|
51, 37|
49, 39|
47, 40|
56, 41|
41, 42|
28, 43|
33, 44|
45, 46|
50, 47|
52, 51|
53, 52|
54, 55|
55, 56|
58, 57|
57, 59|];
DirectSuccessors =  [];
